
Gurobi 9.0.1 (linux64) logging started Thu Apr 30 14:39:39 2020

Gurobi Optimizer version 9.0.1 build v9.0.1rc0 (linux64)
Optimize a model with 12977 rows, 12060 columns and 202290 nonzeros
Model fingerprint: 0xf1964014
Variable types: 0 continuous, 12060 integer (12032 binary)
Coefficient statistics:
  Matrix range     [1e+00, 1e+01]
  Objective range  [2e+00, 1e+02]
  Bounds range     [1e+00, 1e+00]
  RHS range        [1e+00, 1e+00]

User MIP start produced solution with objective 980 (0.23s)
Loaded user MIP start with objective 980

Presolve removed 4372 rows and 3570 columns
Presolve time: 2.93s
Presolved: 8605 rows, 8490 columns, 166725 nonzeros
Variable types: 0 continuous, 8490 integer (8464 binary)

Root simplex log...

Iteration    Objective       Primal Inf.    Dual Inf.      Time
    2742    4.4996648e+02   6.927061e+02   0.000000e+00      5s
    5812    4.6336393e+02   5.339857e+02   0.000000e+00     10s
    8162    4.6610300e+02   1.143921e+02   0.000000e+00     15s
    9749    4.6688630e+02   0.000000e+00   0.000000e+00     19s

Root relaxation: objective 4.668863e+02, 9749 iterations, 15.84 seconds
Total elapsed time = 20.01s

    Nodes    |    Current Node    |     Objective Bounds      |     Work
 Expl Unexpl |  Obj  Depth IntInf | Incumbent    BestBd   Gap | It/Node Time

     0     0  466.88630    0 1783  980.00000  466.88630  52.4%     -   21s
     0     0  490.91212    0 1690  980.00000  490.91212  49.9%     -   56s
     0     0  496.89035    0 1703  980.00000  496.89035  49.3%     -   75s
     0     0  496.95488    0 1705  980.00000  496.95488  49.3%     -   79s
     0     0  496.95490    0 1675  980.00000  496.95490  49.3%     -   79s
     0     0  507.38986    0 1742  980.00000  507.38986  48.2%     -  114s
     0     0  507.78386    0 1772  980.00000  507.78386  48.2%     -  123s
     0     0  507.78953    0 1729  980.00000  507.78953  48.2%     -  124s
     0     0  527.71120    0 1760  980.00000  527.71120  46.2%     -  217s
H    0     0                     949.0000000  527.71120  44.4%     -  218s
     0     0  528.03792    0 1785  949.00000  528.03792  44.4%     -  237s
     0     0  528.05819    0 1760  949.00000  528.05819  44.4%     -  241s
     0     0  528.05903    0 1754  949.00000  528.05903  44.4%     -  242s
     0     0  532.41537    0 1783  949.00000  532.41537  43.9%     -  318s
     0     0  532.85482    0 1827  949.00000  532.85482  43.9%     -  342s
     0     0  532.89189    0 1798  949.00000  532.89189  43.8%     -  349s
     0     0  532.90314    0 1825  949.00000  532.90314  43.8%     -  353s
     0     0  535.25122    0 1843  949.00000  535.25122  43.6%     -  400s
     0     0  535.69321    0 1863  949.00000  535.69321  43.6%     -  420s
     0     0  535.76609    0 1862  949.00000  535.76609  43.5%     -  428s
     0     0  535.77834    0 1848  949.00000  535.77834  43.5%     -  431s
     0     0  536.91865    0 1898  949.00000  536.91865  43.4%     -  477s
     0     0  537.09052    0 1882  949.00000  537.09052  43.4%     -  490s
     0     0  537.11223    0 1883  949.00000  537.11223  43.4%     -  495s
     0     0  538.22400    0 1901  949.00000  538.22400  43.3%     -  532s
     0     0  538.30640    0 1910  949.00000  538.30640  43.3%     -  545s
     0     0  538.31729    0 1914  949.00000  538.31729  43.3%     -  549s
     0     0  539.37382    0 1910  949.00000  539.37382  43.2%     -  586s
     0     0  539.50333    0 1918  949.00000  539.50333  43.2%     -  603s
     0     0  539.53216    0 1928  949.00000  539.53216  43.1%     -  610s
     0     0  539.53481    0 1914  949.00000  539.53481  43.1%     -  612s
     0     0  540.68889    0 1784  949.00000  540.68889  43.0%     -  647s
     0     0  540.94562    0 1787  949.00000  540.94562  43.0%     -  667s
     0     0  540.97051    0 1811  949.00000  540.97051  43.0%     -  672s
     0     0  542.86264    0 1871  949.00000  542.86264  42.8%     -  712s
     0     0  543.11938    0 1887  949.00000  543.11938  42.8%     -  731s
     0     0  543.15191    0 1860  949.00000  543.15191  42.8%     -  737s
     0     0  543.15782    0 1885  949.00000  543.15782  42.8%     -  740s
     0     0  544.48725    0 1866  949.00000  544.48725  42.6%     -  772s
     0     0  544.62097    0 1879  949.00000  544.62097  42.6%     -  789s
     0     0  544.66201    0 1870  949.00000  544.66201  42.6%     -  796s
     0     0  544.67418    0 1892  949.00000  544.67418  42.6%     -  800s
     0     0  544.96997    0 1839  949.00000  544.96997  42.6%     -  817s
     0     0  545.00791    0 1894  949.00000  545.00791  42.6%     -  828s
     0     0  545.01909    0 1898  949.00000  545.01909  42.6%     -  832s
     0     0  545.57821    0 1944  949.00000  545.57821  42.5%     -  856s
     0     0  545.64902    0 1961  949.00000  545.64902  42.5%     -  870s
     0     0  545.66518    0 1969  949.00000  545.66518  42.5%     -  874s
     0     0  546.28839    0 1933  949.00000  546.28839  42.4%     -  895s
     0     0  546.34387    0 1945  949.00000  546.34387  42.4%     -  910s
     0     0  546.35701    0 1968  949.00000  546.35701  42.4%     -  914s
     0     0  546.78511    0 1960  949.00000  546.78511  42.4%     -  937s
     0     0  546.84657    0 1973  949.00000  546.84657  42.4%     -  947s
     0     0  546.86985    0 1981  949.00000  546.86985  42.4%     -  952s
     0     0  547.17381    0 1959  949.00000  547.17381  42.3%     -  972s
     0     0  547.23007    0 1972  949.00000  547.23007  42.3%     -  985s
     0     0  547.24011    0 1980  949.00000  547.24011  42.3%     -  989s
     0     0  547.45467    0 1935  949.00000  547.45467  42.3%     - 1003s
     0     0  547.45467    0 1926  949.00000  547.45467  42.3%     - 1008s
     0     2  547.45860    0 1922  949.00000  547.45860  42.3%     - 1059s
     1     3  547.60989    1 1928  949.00000  547.45860  42.3%  4056 1072s
     2     4  565.71743    1 1698  949.00000  547.60989  42.3% 25494 1230s
     3     5  547.86954    2 1907  949.00000  547.60989  42.3% 19418 1254s
     4     6  571.77278    2 1679  949.00000  547.86954  42.3% 25488 1399s
     5     7  548.08386    3 1895  949.00000  547.86954  42.3% 21160 1411s
     6     8  562.20058    3 1622  949.00000  548.08386  42.2% 25675 1572s
     7     9  548.31960    4 1873  949.00000  548.08386  42.2% 22583 1586s
     8    10  570.13523    4 1638  949.00000  548.33764  42.2% 24580 1744s
     9    11  548.57162    5 1878  949.00000  548.36844  42.2% 22126 1753s
    10    12  548.62361    6 1908  949.00000  548.36844  42.2% 20165 1760s
    11    13  569.96735    7 1715  949.00000  548.36844  42.2% 20836 1836s
    12    14  548.76412    7 1875  949.00000  548.36844  42.2% 19492 1849s
    13    15  574.04066    8 1604  949.00000  548.36844  42.2% 20291 1935s
    14    16  549.52990    8 1794  949.00000  548.36844  42.2% 19494 1963s
    15    17  549.53593    9 1787  949.00000  548.36844  42.2% 18266 1966s
    16    18  550.11280   10 1862  949.00000  548.36844  42.2% 17615 1990s
    17    19  585.74092   10 1607  949.00000  548.36844  42.2% 18015 2061s
    18    20  550.47000   11 1882  949.00000  548.36844  42.2% 17394 2081s
    19    21  575.72948   11 1771  949.00000  548.36844  42.2% 17906 2157s
    20    22  551.01061   12 1879  949.00000  548.36844  42.2% 17290 2178s
    21    23  568.60687   12 1724  949.00000  548.36844  42.2% 18382 2312s
    22    24  551.88055   13 1849  949.00000  548.36844  42.2% 18009 2341s
    23    25  563.69825   13 1562  949.00000  548.36844  42.2% 18543 2423s
    24    26  551.96878   14 1830  949.00000  548.36844  42.2% 17929 2489s
    25    27  567.13100   15 1671  949.00000  548.36844  42.2% 19595 2675s
    26    28  552.08470   15 1891  949.00000  548.36844  42.2% 18987 2684s
    27    29  552.55253   16 1887  949.00000  548.36844  42.2% 18647 2712s
    28    30  567.42626   17 1628  949.00000  548.36844  42.2% 19308 2806s
    29    31  553.34355   17 1756  949.00000  548.36844  42.2% 18923 2834s
    30    32  589.52306   18 1736  949.00000  548.36844  42.2% 19718 2965s
    31    33  553.81495   18 1786  949.00000  548.36844  42.2% 19284 2978s
    32    34  574.25680   19 1578  949.00000  548.36844  42.2% 19456 3037s
    33    35  554.48253   19 1804  949.00000  548.36844  42.2% 19082 3061s
    34    36  586.68521   20 1606  949.00000  548.36844  42.2% 20114 3227s
    35    37  554.69960   20 1794  949.00000  548.36844  42.2% 19694 3242s
    36    38  554.73770   21 1777  949.00000  548.36844  42.2% 19198 3247s
    37    39  577.70577   21 1653  949.00000  548.36844  42.2% 19360 3307s
    38    40  556.63115   22 1797  949.00000  548.36844  42.2% 19205 3343s
    39    41  571.77183   22 1614  949.00000  548.36844  42.2% 19734 3470s
    40    42  557.17125   23 1746  949.00000  548.36844  42.2% 19448 3491s
    41    43  578.20656   23 1627  949.00000  548.36844  42.2% 19476 3552s
    42    44  557.61786   24 1733  949.00000  548.36844  42.2% 19133 3567s

Cutting planes:
  MIR: 61
  StrongCG: 2
  GUB cover: 2
  Zero half: 53
  Mod-K: 1
  RLT: 1152

Explored 43 nodes (1081227 simplex iterations) in 3600.02 seconds
Thread count was 1 (of 40 available processors)

Solution count 2: 949 980 

Time limit reached
Best objective 9.490000000000e+02, best bound 5.490000000000e+02, gap 42.1496%

User-callback calls 44049, time in user-callback 0.08 sec
